StringID Type x y demand ReadyTime DueDate ServiceTime
D0 d 35 35.0 0.0 0.0 230.0 0.0
Dt d 35 35.0 0.0 0.0 230.0 0.0
C71 c3 57 68.0 15.0 0.0 180.0 10.0
C1 c3 41 49.0 10.0 36.0 46.0 10.0
C5 c2 15 30.0 26.0 0.0 199.0 10.0
C87 c3 28 18.0 26.0 166.0 176.0 10.0
C99 c3 20 26.0 9.0 0.0 202.0 10.0
P0 p 32 39.0 0.0 0.0 230.0 5.0
param CV := 200.0 nan nan nan nan
param V := 1.0 nan nan nan nan
